webassembly/ejemplos_dzn/folder16_json_96.dzn
TERM = { '.', 's(5)', 's(2)', 'in_1', 'local_1', 'in_6', 'in_2', 'in_4', 'in_3', 'in_8', 's(1)', 's(0)', 'in_7', 'in_5', 's(3)', 'in_0'};
null = '.';
s = 16;
n = 15;
ndeps = 4;
max_registers_sz = 4;
NR = 1;
registers = [|'local_1', 'in_8'|];
dependencies = [|'i32.load8_s_2', 'i32.store16_4', |'i32.store16_4', 'i32.store_6', |'i32.store_6', 'i32.load_9', |'i32.load_9', 'i32.store8_14'|];
GET_ENUM = { GET1, GET2, GET3, GET4, GET5};
SET_ENUM = { SET1, SET2, SET3, SET4, SET5};
TEE_ENUM = { TEE1, TEE2, TEE3, TEE4, TEE5};
N = 8;
OP = { 'i32.const_0', 'i32.add_0', 'i32.load8_s_2', 'i32.add_1', 'i32.store16_4', 'i32.store_6', 'i32.load_9', 'i32.store8_14' };
in_ops = [0, 2, 1, 2, 2, 2, 1, 2 ];
out_ops = [1, 1, 1, 1, 0, 0, 1, 0 ];
in1 = ['.', 's(5)', 's(0)', 's(1)', 's(2)', 'local_1', 'in_4', 'in_6' ];
in2 = ['.', 'in_0', '.', 'in_1', 'in_2', 'in_3', '.', 'in_7' ];
in3 = ['.', '.', '.', '.', '.', '.', '.', '.' ];
out1 = ['s(5)', 's(0)', 's(1)', 's(2)', '.', '.', 's(3)', '.' ];
out2 = ['.', '.', '.', '.', '.', '.', '.', '.' ];
out3 = ['.', '.', '.', '.', '.', '.', '.', '.' ];
comm = [false, true, false, true, false, false, false, false ];
gas = [1, 1, 1, 1, 1, 1, 1, 1 ];
sz = [1, 1, 1, 1, 1, 1, 1, 1 ];
stor = [false, false, false, false, true, true, false, true ];
lb = [ 1, 1, 1, 1, 1, 1, 1, 1 ];
ub = [ 16, 16, 16, 16, 16, 16, 16, 16 ];
startstack = [ 'in_0', 'in_1', 'in_2', 'in_3', 'in_4', 'in_5', 'in_6', 'in_7', 'in_8', null, null, null, null, null, null ];
endstack = [ 'in_8', null, null, null, null, null, null, null, null, null, null, null, null, null, null ];
