webassembly/ejemplos_results/folder16_json_96.txt
value = 15;
fgas = [1, 1, 1, 2, 1, 1, 1, 1, 1, 2, 2, 1, 1, 1, 1, 0];
fsize = [1, 1, 1, 1, 1, 1, 1, 1, 1, 1, 1, 1, 1, 1, 1, 1];
states = 
[|    in_0,    in_1, in_2, in_3, in_4, in_5, in_6, in_7, in_8,  '.', '.', '.', '.', '.', '.'
 |  's(5)',    in_0, in_1, in_2, in_3, in_4, in_5, in_6, in_7, in_8, '.', '.', '.', '.', '.'
 |  's(0)',    in_0, in_2, in_3, in_4, in_5, in_6, in_7, in_8,  '.', '.', '.', '.', '.', '.'
 |  's(1)',    in_4, in_2, in_3, in_4, in_5, in_6, in_7, in_8,  '.', '.', '.', '.', '.', '.'
 |    in_4,    in_2, in_3, in_4, in_5, in_6, in_7, in_8,  '.',  '.', '.', '.', '.', '.', '.'
 |  's(3)',    in_3, in_3, in_4, in_5, in_6, in_7, in_8,  '.',  '.', '.', '.', '.', '.', '.'
 |  's(5)', local_1, in_3, in_3, in_4, in_5, in_6, in_7, in_8,  '.', '.', '.', '.', '.', '.'
 | local_1,    in_3, in_3, in_4, in_5, in_6, in_7, in_8,  '.',  '.', '.', '.', '.', '.', '.'
 |    in_8,    in_4, in_5, in_6, in_7, in_8,  '.',  '.',  '.',  '.', '.', '.', '.', '.', '.'
 |    in_4,    in_5, in_6, in_7, in_8,  '.',  '.',  '.',  '.',  '.', '.', '.', '.', '.', '.'
 |    in_5,    in_6, in_7, in_8,  '.',  '.',  '.',  '.',  '.',  '.', '.', '.', '.', '.', '.'
 |    in_6,    in_7, in_8,  '.',  '.',  '.',  '.',  '.',  '.',  '.', '.', '.', '.', '.', '.'
 |  's(0)',     '.',  '.',  '.',  '.',  '.',  '.',  '.',  '.',  '.', '.', '.', '.', '.', '.'
 |  's(1)',    in_1,  '.',  '.',  '.',  '.',  '.',  '.',  '.',  '.', '.', '.', '.', '.', '.'
 |  's(2)',    in_2,  '.',  '.',  '.',  '.',  '.',  '.',  '.',  '.', '.', '.', '.', '.', '.'
 |    in_8,     '.',  '.',  '.',  '.',  '.',  '.',  '.',  '.',  '.', '.', '.', '.', '.', '.'
 |    in_8,     '.',  '.',  '.',  '.',  '.',  '.',  '.',  '.',  '.', '.', '.', '.', '.', '.'
 |];
register_states = 
[| local_1, '.', '.', '.', '.'
 | local_1, '.', '.', '.', '.'
 | local_1, '.', '.', '.', '.'
 | local_1, '.', '.', '.', '.'
 | local_1, '.', '.', '.', '.'
 | local_1, '.', '.', '.', '.'
 | local_1, '.', '.', '.', '.'
 | local_1, '.', '.', '.', '.'
 | local_1, '.', '.', '.', '.'
 |    in_8, '.', '.', '.', '.'
 |    in_8, '.', '.', '.', '.'
 |    in_8, '.', '.', '.', '.'
 |    in_8, '.', '.', '.', '.'
 |    in_8, '.', '.', '.', '.'
 |    in_8, '.', '.', '.', '.'
 |    in_8, '.', '.', '.', '.'
 |    in_8, '.', '.', '.', '.'
 |];
program = [O('i32.const_0'), O('i32.add_0'), O('i32.load8_s_2'), POP, O('i32.load_9'), O('i32.const_0'), G(GET1), O('i32.store_6'), S(SET1), POP, POP, O('i32.store8_14'), O('i32.load8_s_2'), O('i32.add_1'), O('i32.store16_4'), NOP];
% time elapsed: 0.64 s
----------
=====UNKNOWN=====
% time elapsed: 0.99 s
